(set-logic HORN)
(set-info :source |
    Benchmark: C_VC
    Output by Princess (http://www.philipp.ruemmer.org/princess.shtml)
|)
(set-info :status sat)
(declare-heap Heap Addr HeapObject
 defObj
 ((HeapObject 0)) (
  (
   (O_Int (getInt Int))
   (O_UInt (getUInt Int))
   (O_Addr (getAddr Addr))
   (defObj)
  )
))
(declare-fun inv_main10 (Heap Int Int AddrRange AddrRange AddrRange) Bool)
(declare-fun inv_main12 (Heap Int Int AddrRange AddrRange AddrRange) Bool)
(declare-fun inv_main14 (Heap Int Int AddrRange AddrRange AddrRange) Bool)
(declare-fun inv_main15 (Heap Int Int AddrRange AddrRange AddrRange) Bool)
(declare-fun inv_main17 (Heap Int Int AddrRange AddrRange AddrRange Int) Bool)
(declare-fun inv_main18 (Heap Int Int AddrRange AddrRange AddrRange Int) Bool)
(declare-fun inv_main21 (Heap Int Int AddrRange AddrRange AddrRange) Bool)
(declare-fun inv_main7 (Heap Int Int AddrRange AddrRange AddrRange) Bool)
(assert (forall ((var0 Int) (var1 AddrRange) (var2 AddrRange) (var3 Int) (var4 Int) (var5 Int) (var6 Heap) (var7 AddrRange) (var8 Int) (var9 Int) (var10 Int) (var11 Int) (var12 Heap) (var13 Heap)) (or (not (and (and (= var13 emptyHeap) (and (and (and (= var12 (newBatchHeap (batchAlloc emptyHeap (O_Int var11) 100000))) (= var10 var9)) (= var8 100000)) (= var7 (newAddrRange (batchAlloc emptyHeap (O_Int var11) 100000))))) (and (and (and (and (= var6 (newBatchHeap (batchAlloc emptyHeap (O_Int var5) var8))) (= var4 var10)) (= var3 var8)) (= var2 var7)) (= var1 (newAddrRange (batchAlloc emptyHeap (O_Int var5) var8)))))) (inv_main7 (newBatchHeap (batchAlloc emptyHeap (O_Int var0) var3)) var4 var3 var2 var1 (newAddrRange (batchAlloc emptyHeap (O_Int var0) var3))))))
(assert (forall ((var0 AddrRange) (var1 AddrRange) (var2 AddrRange) (var3 Int) (var4 Int) (var5 Heap) (var6 Int) (var7 AddrRange) (var8 AddrRange) (var9 AddrRange) (var10 Int) (var11 Int) (var12 Heap)) (or (not (and (inv_main18 var12 var11 var10 var9 var8 var7 var6) (and (and (is-O_Int (read var12 (nthAddrRange var7 var11))) (is-O_Int (read var12 (nthAddrRange var7 var11)))) (and (and (and (and (and (= var5 (write var12 (nthAddrRange var7 var11) (O_Int var6))) (= var4 var11)) (= var3 var10)) (= var2 var9)) (= var1 var8)) (= var0 var7))))) (inv_main14 var5 (+ var4 1) var3 var2 var1 var0))))
(assert (forall ((var0 AddrRange) (var1 AddrRange) (var2 AddrRange) (var3 Int) (var4 Int) (var5 Heap)) (or (not (and (inv_main7 var5 var4 var3 var2 var1 var0) (not (<= 0 (+ var3 (- 1)))))) (inv_main14 var5 0 var3 var2 var1 var0))))
(assert (forall ((var0 AddrRange) (var1 AddrRange) (var2 AddrRange) (var3 Heap) (var4 Int) (var5 Int) (var6 AddrRange) (var7 AddrRange) (var8 AddrRange) (var9 Int) (var10 Int) (var11 Heap)) (or (not (and (inv_main12 var11 var10 var9 var8 var7 var6) (and (not (<= 0 (+ (+ var5 (* (- 1) (+ var4 1))) (- 1)))) (and (and (is-O_Int (read var11 (nthAddrRange var7 var10))) (is-O_Int (read var11 (nthAddrRange var7 var10)))) (and (and (and (and (and (= var3 (write var11 (nthAddrRange var7 var10) (O_Int 2))) (= var4 var10)) (= var5 var9)) (= var2 var8)) (= var1 var7)) (= var0 var6)))))) (inv_main14 var3 0 var5 var2 var1 var0))))
(assert (forall ((var0 AddrRange) (var1 AddrRange) (var2 AddrRange) (var3 Int) (var4 Int) (var5 Heap)) (or (not (and (inv_main14 var5 var4 var3 var2 var1 var0) (<= 0 (+ (+ var3 (* (- 1) var4)) (- 1))))) (inv_main15 var5 var4 var3 var2 var1 var0))))
(assert (forall ((var0 Int) (var1 AddrRange) (var2 AddrRange) (var3 AddrRange) (var4 Int) (var5 Int) (var6 Heap)) (or (not (and (inv_main17 var6 var5 var4 var3 var2 var1 var0) (is-O_Int (read var6 (nthAddrRange var2 var5))))) (inv_main18 var6 var5 var4 var3 var2 var1 (+ var0 (getInt (read var6 (nthAddrRange var2 var5))))))))
(assert (forall ((var0 AddrRange) (var1 AddrRange) (var2 AddrRange) (var3 Int) (var4 Int) (var5 Heap)) (or (not (and (inv_main10 var5 var4 var3 var2 var1 var0) (and (is-O_Int (read var5 (nthAddrRange var2 var4))) (is-O_Int (read var5 (nthAddrRange var2 var4)))))) (inv_main12 (write var5 (nthAddrRange var2 var4) (O_Int 1)) var4 var3 var2 var1 var0))))
(assert (forall ((var0 AddrRange) (var1 AddrRange) (var2 AddrRange) (var3 Int) (var4 Int) (var5 Heap)) (or (not (and (inv_main14 var5 var4 var3 var2 var1 var0) (and (<= 0 (+ (+ var3 (- 1)) (- 1))) (not (<= 0 (+ (+ var3 (* (- 1) var4)) (- 1))))))) (inv_main21 var5 1 var3 var2 var1 var0))))
(assert (forall ((var0 AddrRange) (var1 AddrRange) (var2 AddrRange) (var3 Int) (var4 Int) (var5 Heap)) (or (not (and (inv_main21 var5 var4 var3 var2 var1 var0) (and (<= 0 (+ (+ var3 (* (- 1) (+ var4 1))) (- 1))) (is-O_Int (read var5 (nthAddrRange var0 var4)))))) (inv_main21 var5 (+ var4 1) var3 var2 var1 var0))))
(assert (forall ((var0 AddrRange) (var1 AddrRange) (var2 AddrRange) (var3 Int) (var4 Int) (var5 Heap)) (or (not (and (inv_main7 var5 var4 var3 var2 var1 var0) (<= 0 (+ var3 (- 1))))) (inv_main10 var5 0 var3 var2 var1 var0))))
(assert (forall ((var0 AddrRange) (var1 AddrRange) (var2 AddrRange) (var3 Heap) (var4 Int) (var5 Int) (var6 AddrRange) (var7 AddrRange) (var8 AddrRange) (var9 Int) (var10 Int) (var11 Heap)) (or (not (and (inv_main12 var11 var10 var9 var8 var7 var6) (and (<= 0 (+ (+ var5 (* (- 1) (+ var4 1))) (- 1))) (and (and (is-O_Int (read var11 (nthAddrRange var7 var10))) (is-O_Int (read var11 (nthAddrRange var7 var10)))) (and (and (and (and (and (= var3 (write var11 (nthAddrRange var7 var10) (O_Int 2))) (= var4 var10)) (= var5 var9)) (= var2 var8)) (= var1 var7)) (= var0 var6)))))) (inv_main10 var3 (+ var4 1) var5 var2 var1 var0))))
(assert (forall ((var0 AddrRange) (var1 AddrRange) (var2 AddrRange) (var3 Int) (var4 Int) (var5 Heap)) (or (not (and (inv_main15 var5 var4 var3 var2 var1 var0) (is-O_Int (read var5 (nthAddrRange var2 var4))))) (inv_main17 var5 var4 var3 var2 var1 var0 (getInt (read var5 (nthAddrRange var2 var4)))))))
(assert (forall ((var0 AddrRange) (var1 AddrRange) (var2 AddrRange) (var3 Int) (var4 Int) (var5 Heap)) (not (and (inv_main10 var5 var4 var3 var2 var1 var0) (not (is-O_Int (read var5 (nthAddrRange var2 var4))))))))
(assert (forall ((var0 AddrRange) (var1 AddrRange) (var2 AddrRange) (var3 Int) (var4 Int) (var5 Heap)) (not (and (inv_main10 var5 var4 var3 var2 var1 var0) (and (is-O_Int (read var5 (nthAddrRange var2 var4))) (not (within var2 (nthAddrRange var2 var4))))))))
(assert (forall ((var0 AddrRange) (var1 AddrRange) (var2 AddrRange) (var3 Int) (var4 Int) (var5 Heap)) (not (and (inv_main10 var5 var4 var3 var2 var1 var0) (and (is-O_Int (read var5 (nthAddrRange var2 var4))) (not (is-O_Int (read var5 (nthAddrRange var2 var4)))))))))
(assert (forall ((var0 AddrRange) (var1 AddrRange) (var2 AddrRange) (var3 Int) (var4 Int) (var5 Heap)) (not (and (inv_main12 var5 var4 var3 var2 var1 var0) (not (is-O_Int (read var5 (nthAddrRange var1 var4))))))))
(assert (forall ((var0 AddrRange) (var1 AddrRange) (var2 AddrRange) (var3 Int) (var4 Int) (var5 Heap)) (not (and (inv_main12 var5 var4 var3 var2 var1 var0) (and (is-O_Int (read var5 (nthAddrRange var1 var4))) (not (within var1 (nthAddrRange var1 var4))))))))
(assert (forall ((var0 AddrRange) (var1 AddrRange) (var2 AddrRange) (var3 Int) (var4 Int) (var5 Heap)) (not (and (inv_main12 var5 var4 var3 var2 var1 var0) (and (is-O_Int (read var5 (nthAddrRange var1 var4))) (not (is-O_Int (read var5 (nthAddrRange var1 var4)))))))))
(assert (forall ((var0 AddrRange) (var1 AddrRange) (var2 AddrRange) (var3 Int) (var4 Int) (var5 Heap)) (not (and (inv_main15 var5 var4 var3 var2 var1 var0) (not (is-O_Int (read var5 (nthAddrRange var2 var4))))))))
(assert (forall ((var0 AddrRange) (var1 AddrRange) (var2 AddrRange) (var3 Int) (var4 Int) (var5 Heap)) (not (and (inv_main15 var5 var4 var3 var2 var1 var0) (and (is-O_Int (read var5 (nthAddrRange var2 var4))) (not (within var2 (nthAddrRange var2 var4))))))))
(assert (forall ((var0 Int) (var1 AddrRange) (var2 AddrRange) (var3 AddrRange) (var4 Int) (var5 Int) (var6 Heap)) (not (and (inv_main17 var6 var5 var4 var3 var2 var1 var0) (not (is-O_Int (read var6 (nthAddrRange var2 var5))))))))
(assert (forall ((var0 Int) (var1 AddrRange) (var2 AddrRange) (var3 AddrRange) (var4 Int) (var5 Int) (var6 Heap)) (not (and (inv_main17 var6 var5 var4 var3 var2 var1 var0) (and (is-O_Int (read var6 (nthAddrRange var2 var5))) (not (within var2 (nthAddrRange var2 var5))))))))
(assert (forall ((var0 Int) (var1 AddrRange) (var2 AddrRange) (var3 AddrRange) (var4 Int) (var5 Int) (var6 Heap)) (not (and (inv_main18 var6 var5 var4 var3 var2 var1 var0) (not (is-O_Int (read var6 (nthAddrRange var1 var5))))))))
(assert (forall ((var0 Int) (var1 AddrRange) (var2 AddrRange) (var3 AddrRange) (var4 Int) (var5 Int) (var6 Heap)) (not (and (inv_main18 var6 var5 var4 var3 var2 var1 var0) (and (is-O_Int (read var6 (nthAddrRange var1 var5))) (not (within var1 (nthAddrRange var1 var5))))))))
(assert (forall ((var0 Int) (var1 AddrRange) (var2 AddrRange) (var3 AddrRange) (var4 Int) (var5 Int) (var6 Heap)) (not (and (inv_main18 var6 var5 var4 var3 var2 var1 var0) (and (is-O_Int (read var6 (nthAddrRange var1 var5))) (not (is-O_Int (read var6 (nthAddrRange var1 var5)))))))))
(assert (forall ((var0 AddrRange) (var1 AddrRange) (var2 AddrRange) (var3 Int) (var4 Int) (var5 Heap)) (not (and (inv_main21 var5 var4 var3 var2 var1 var0) (not (is-O_Int (read var5 (nthAddrRange var0 var4))))))))
(assert (forall ((var0 AddrRange) (var1 AddrRange) (var2 AddrRange) (var3 Int) (var4 Int) (var5 Heap)) (not (and (inv_main21 var5 var4 var3 var2 var1 var0) (not (within var0 (nthAddrRange var0 var4)))))))
(assert (forall ((var0 AddrRange) (var1 AddrRange) (var2 AddrRange) (var3 Int) (var4 Int) (var5 Heap)) (not (and (inv_main21 var5 var4 var3 var2 var1 var0) (not (is-O_Int (read var5 (nthAddrRange var0 var4))))))))
(assert (forall ((var0 AddrRange) (var1 AddrRange) (var2 AddrRange) (var3 Int) (var4 Int) (var5 Heap)) (not (and (inv_main21 var5 var4 var3 var2 var1 var0) (and (is-O_Int (read var5 (nthAddrRange var0 var4))) (not (within var0 (nthAddrRange var0 var4))))))))
(assert (forall ((var0 AddrRange) (var1 AddrRange) (var2 AddrRange) (var3 Int) (var4 Int) (var5 Heap)) (not (and (inv_main21 var5 var4 var3 var2 var1 var0) (and (is-O_Int (read var5 (nthAddrRange var0 var4))) (not (<= 0 (+ (getInt (read var5 (nthAddrRange var0 var4))) (- 3)))))))))
(check-sat)
